\ LP format - for model browsing. Use MPS format to capture full model detail.
Maximize
  h[0] + 2 h[1] + 3 h[2] + 4 h[3] - 4 Constant
Subject To
 R0: 2 h[0] + 3 h[1] + 4 h[2] + 5 h[3] <= 6
Bounds
 Constant = 1
Generals
 h[0] h[1] h[2] h[3]
End
